201
114311
865
852
851
895
894
893
891
886
885
927
926
905
914
913
930
931
937
939
955
942
944
952
965
966
968
701
693
987
988
683
675
674
669
666
665
724
722
714
707
737
736
731
732
616
624
651
654
658
660
355
354
349
346
342
337
396
394
387
388
379
409
412
375
634
633
629
610
607
448
451
453
430
428
424
423
404
403
289
296
309
310
313
331
332
26
25
32
33
60
58
54
72
68
12
7
4
3
1
76
75
79
78
96
133
132
140
143
144
149
995
252
154
155
167
172
173
179
180
183
996
202
206
208
209
218
237
240
233
225
264
246
261
260
270
257
122
123
124
106
110
111
299
284
277
275
274
273
469
471
472
479
481
483
491
490
489
499
501
507
511
999
532
536
537
539
522
516
567
565
563
559
592
591
580
581
587
598
600
602
603
795
794
790
753
1000
759
781
783
802
799
807
809
821
823
817
816
836
837
1002
860
864
